c uprop, v00.0, 
c reading from data/prog907.c.cnf
c done reading: 0.003526
p cnf 101 401
-53 -65 0
53 65 0
-57 -58 0
57 58 0
-60 -62 0
60 62 0
-55 -64 0
55 64 0
-61 -67 0
61 67 0
-69 -71 0
69 71 0
53 -72 0
-53 72 0
50 -53 -57 0
50 -57 0
50 -53 0
-50 53 57 0
-49 -50 57 0
-49 -50 53 0
49 50 -57 0
49 50 -53 0
49 50 0
49 -53 -57 0
48 -57 -60 0
48 -50 -60 0
48 -50 -57 0
-48 57 60 0
-48 50 60 0
-48 50 57 0
-47 -48 60 0
-47 -48 57 0
-47 -48 50 0
47 48 -60 0
47 48 -57 0
47 48 -50 0
47 -50 -57 -60 0
-47 50 57 60 0
46 -60 -64 0
46 -48 -64 0
46 -48 -60 0
-46 60 64 0
-46 48 64 0
-46 48 60 0
-45 -46 64 0
-45 -46 60 0
-45 -46 48 0
45 46 -64 0
45 46 -60 0
45 46 -48 0
45 -48 -60 -64 0
-45 48 60 64 0
44 -64 -67 0
44 -46 -67 0
44 -46 -64 0
-44 64 67 0
-44 46 67 0
-44 46 64 0
-43 -44 67 0
-43 -44 64 0
-43 -44 46 0
43 44 -67 0
43 44 -64 0
43 44 -46 0
43 -46 -64 -67 0
-43 46 64 67 0
42 -67 -71 0
42 -44 -71 0
42 -44 -67 0
-42 67 71 0
-42 44 71 0
-42 44 67 0
-41 -42 71 0
-41 -42 67 0
-41 -42 44 0
41 42 -71 0
41 42 -67 0
41 42 -44 0
41 -44 -67 -71 0
-41 44 67 71 0
-51 71 0
42 -51 0
-42 51 -71 0
-42 -54 -71 0
42 -54 71 0
42 54 -71 0
-42 54 71 0
-68 -72 0
68 72 0
-39 -49 0
39 49 0
-37 -47 0
37 47 0
-35 -45 0
35 45 0
-43 -73 0
43 73 0
-41 -75 0
41 75 0
-54 -76 0
54 76 0
-51 -77 0
51 77 0
-40 -78 0
-78 -80 0
40 78 80 0
40 80 -81 0
-40 -80 -81 0
-40 80 81 0
40 -80 81 0
78 -82 0
-38 -82 0
38 -78 82 0
38 -78 -83 0
-38 78 -83 0
38 78 83 0
-38 -78 83 0
82 -84 0
-84 -86 0
-82 84 86 0
-82 86 -87 0
82 -86 -87 0
82 86 87 0
-82 -86 87 0
84 -88 0
-36 -88 0
36 -84 88 0
36 -84 -89 0
-36 84 -89 0
36 84 89 0
-36 -84 89 0
88 -90 0
-90 -92 0
-88 90 92 0
-88 92 -93 0
88 -92 -93 0
88 92 93 0
-88 -92 93 0
90 -94 0
-74 -94 0
74 -90 94 0
74 -90 -95 0
-74 90 -95 0
74 90 95 0
-74 -90 95 0
94 -96 0
-96 -98 0
-94 96 98 0
-94 98 -99 0
94 -98 -99 0
94 98 99 0
-94 -98 99 0
38 -66 0
40 -66 0
-38 -40 66 0
-38 -40 -100 0
38 40 -100 0
-38 40 100 0
38 -40 100 0
59 -80 -86 0
59 -66 -86 0
59 -66 -80 0
-59 80 86 0
-59 66 86 0
-59 66 80 0
-59 86 -101 0
-59 80 -101 0
-59 66 -101 0
59 -86 101 0
59 -80 101 0
59 -66 101 0
-66 -80 -86 101 0
66 80 86 -101 0
34 -36 -38 0
34 -36 -59 0
34 -38 -59 0
-34 36 38 0
-34 36 59 0
-34 38 59 0
-33 -34 36 0
-33 -34 38 0
-33 -34 59 0
33 34 -36 0
33 34 -38 0
33 34 -59 0
33 -36 -38 -59 0
-33 36 38 59 0
32 -86 -92 0
32 -34 -92 0
32 -34 -86 0
-32 86 92 0
-32 34 92 0
-32 34 86 0
-31 -32 92 0
-31 -32 86 0
-31 -32 34 0
31 32 -92 0
31 32 -86 0
31 32 -34 0
31 -34 -86 -92 0
-31 34 86 92 0
30 -36 -74 0
30 -32 -74 0
30 -32 -36 0
-30 36 74 0
-30 32 74 0
-30 32 36 0
-29 -30 74 0
-29 -30 36 0
-29 -30 32 0
29 30 -74 0
29 30 -36 0
29 30 -32 0
29 -32 -36 -74 0
-29 32 36 74 0
28 -92 -98 0
28 -30 -98 0
28 -30 -92 0
-28 92 98 0
-28 30 98 0
-28 30 92 0
-27 -28 98 0
-27 -28 92 0
-27 -28 30 0
27 28 -98 0
27 28 -92 0
27 28 -30 0
27 -30 -92 -98 0
-27 30 92 98 0
-26 74 0
-26 28 0
26 -28 -74 0
-25 -28 -74 0
-25 28 74 0
25 28 -74 0
25 -28 74 0
-24 98 0
-24 26 0
24 -26 -98 0
-23 -26 -98 0
-23 26 98 0
23 26 -98 0
23 -26 98 0
-22 -40 0
-22 -80 0
22 40 80 0
-21 40 80 0
-21 -40 -80 0
21 -40 80 0
21 40 -80 0
-20 22 0
-20 -100 0
20 -22 100 0
-19 -22 100 0
-19 22 -100 0
19 22 100 0
19 -22 -100 0
-18 20 0
-18 -101 0
18 -20 101 0
-17 -20 101 0
-17 20 -101 0
17 20 101 0
17 -20 -101 0
-16 18 0
-16 -33 0
16 -18 33 0
-15 -18 33 0
-15 18 -33 0
15 18 33 0
15 -18 -33 0
-14 16 0
-14 -31 0
14 -16 31 0
-13 -16 31 0
-13 16 -31 0
13 16 31 0
13 -16 -31 0
-12 14 0
-12 -29 0
12 -14 29 0
-11 -14 29 0
-11 14 -29 0
11 14 29 0
11 -14 -29 0
-10 12 0
-10 -27 0
10 -12 27 0
-9 -12 27 0
-9 12 -27 0
9 12 27 0
9 -12 -27 0
-8 10 0
-8 -25 0
8 -10 25 0
-7 -10 25 0
-7 10 -25 0
7 10 25 0
7 -10 -25 0
-6 8 0
-6 -23 0
6 -8 23 0
-5 -8 23 0
-5 8 -23 0
5 8 23 0
5 -8 -23 0
-4 6 0
-4 -24 0
4 -6 24 0
-6 24 -52 0
6 -24 -52 0
6 24 52 0
-6 -24 52 0
-56 72 0
40 -56 0
-40 56 -72 0
40 -72 0
-40 72 0
-49 63 -80 0
-49 -56 63 0
-56 63 -80 0
49 -63 80 0
49 56 -63 0
56 -63 80 0
-49 63 0
63 -80 0
-56 63 0
-49 -56 -80 0
-47 70 -100 0
-47 -63 70 0
-63 70 -100 0
47 -70 100 0
47 63 -70 0
63 -70 100 0
-47 70 0
70 -100 0
-63 70 0
-47 -63 -100 0
-45 79 -101 0
-45 -70 79 0
-70 79 -101 0
45 -79 101 0
45 70 -79 0
70 -79 101 0
-45 79 0
79 -101 0
-70 79 0
-45 -70 -101 0
-33 -43 85 0
-43 -79 85 0
-33 -79 85 0
33 43 -85 0
43 79 -85 0
33 79 -85 0
43 -85 0
33 -85 0
79 -85 0
33 43 79 0
-31 -41 91 0
-41 -85 91 0
-31 -85 91 0
31 41 -91 0
41 85 -91 0
31 85 -91 0
-41 91 0
-31 91 0
-85 91 0
-31 -41 -85 0
-29 -54 97 0
-54 -91 97 0
-29 -91 97 0
29 54 -97 0
54 91 -97 0
29 91 -97 0
-54 97 0
-29 97 0
-91 97 0
-29 -54 -91 0
3 -27 -51 0
3 -51 -97 0
3 -27 -97 0
-3 27 51 0
-3 51 97 0
-3 27 97 0
3 -51 0
3 -27 0
3 -97 0
-27 -51 -97 0
-2 25 0
-2 3 0
2 -3 -25 0
3 -25 0
-3 25 0
-1 23 0
-1 2 0
1 -2 -23 0
2 -23 0
-2 23 0
-1 -24 0
1 -24 0
-1 24 0
